NAME: data/d657.tsp/d657.tsp.tour
TYPE: TOUR
DIMENSION: 657
SOLUTION: 42941
TOUR_SECTION
0, 1
1, 2
2, 3
3, 10
10, 9
9, 8
8, 7
7, 33
33, 32
32, 36
36, 35
35, 39
39, 41
41, 45
45, 44
44, 49
49, 54
54, 50
50, 40
40, 63
63, 68
68, 73
73, 77
77, 84
84, 74
74, 93
93, 98
98, 97
97, 91
91, 115
115, 102
102, 114
114, 118
118, 132
132, 140
140, 103
103, 119
119, 113
113, 99
99, 92
92, 86
86, 120
120, 139
139, 148
148, 161
161, 170
170, 169
169, 171
171, 147
147, 154
154, 149
149, 155
155, 168
168, 172
172, 178
178, 185
185, 195
195, 191
191, 197
197, 186
186, 180
180, 181
181, 198
198, 199
199, 187
187, 165
165, 157
157, 162
162, 164
164, 142
142, 137
137, 130
130, 128
128, 116
116, 129
129, 101
101, 138
138, 131
131, 117
117, 156
156, 163
163, 85
85, 72
72, 65
65, 57
57, 52
52, 48
48, 59
59, 69
69, 55
55, 209
209, 217
217, 218
218, 234
234, 206
206, 253
253, 261
261, 271
271, 263
263, 264
264, 239
239, 230
230, 220
220, 238
238, 262
262, 290
290, 298
298, 289
289, 307
307, 317
317, 322
322, 335
335, 345
345, 341
341, 347
347, 361
361, 340
340, 323
323, 324
324, 334
334, 346
346, 372
372, 391
391, 398
398, 400
400, 404
404, 415
415, 389
389, 421
421, 240
240, 190
190, 196
196, 11
11, 12
12, 141
141, 24
24, 21
21, 14
14, 15
15, 16
16, 17
17, 13
13, 20
20, 18
18, 19
19, 444
444, 445
445, 22
22, 28
28, 23
23, 440
440, 25
25, 26
26, 27
27, 30
30, 441
441, 443
443, 446
446, 447
447, 29
29, 31
31, 37
37, 34
34, 469
469, 38
38, 42
42, 46
46, 58
58, 43
43, 47
47, 51
51, 62
62, 56
56, 61
61, 66
66, 71
71, 80
80, 67
67, 76
76, 83
83, 89
89, 94
94, 82
82, 96
96, 100
100, 107
107, 111
111, 106
106, 112
112, 122
122, 110
110, 123
123, 88
88, 87
87, 95
95, 134
134, 108
108, 109
109, 127
127, 124
124, 505
505, 506
506, 125
125, 135
135, 145
145, 144
144, 504
504, 126
126, 502
502, 499
499, 503
503, 501
501, 500
500, 507
507, 133
133, 136
136, 495
495, 492
492, 489
489, 484
484, 488
488, 487
487, 485
485, 480
480, 481
481, 490
490, 486
486, 493
493, 496
496, 498
498, 497
497, 494
494, 491
491, 508
508, 509
509, 482
482, 472
472, 483
483, 471
471, 143
143, 153
153, 150
150, 158
158, 166
166, 167
167, 151
151, 463
463, 462
462, 464
464, 466
466, 468
468, 458
458, 453
453, 450
450, 452
452, 448
448, 451
451, 454
454, 449
449, 461
461, 465
465, 467
467, 460
460, 459
459, 457
457, 456
456, 473
473, 455
455, 442
442, 81
81, 75
75, 70
70, 146
146, 470
470, 514
514, 515
515, 121
121, 105
105, 104
104, 90
90, 439
439, 303
303, 299
299, 293
293, 288
288, 160
160, 174
174, 193
193, 189
189, 182
182, 173
173, 183
183, 194
194, 200
200, 159
159, 510
510, 201
201, 202
202, 203
203, 205
205, 212
212, 216
216, 222
222, 245
245, 213
213, 580
580, 229
229, 246
246, 257
257, 279
279, 592
592, 306
306, 297
297, 296
296, 302
302, 295
295, 301
301, 280
280, 273
273, 258
258, 266
266, 281
281, 278
278, 285
285, 265
265, 319
319, 330
330, 343
343, 354
354, 336
336, 360
360, 355
355, 331
331, 152
152, 177
177, 184
184, 179
179, 586
586, 581
581, 589
589, 598
598, 600
600, 601
601, 605
605, 606
606, 610
610, 607
607, 595
595, 608
608, 596
596, 591
591, 597
597, 602
602, 594
594, 231
231, 235
235, 237
237, 269
269, 210
210, 381
381, 383
383, 380
380, 375
375, 393
393, 418
418, 308
308, 309
309, 321
321, 325
325, 342
342, 348
348, 364
364, 370
370, 349
349, 388
388, 397
397, 292
292, 287
287, 275
275, 254
254, 248
248, 236
236, 225
225, 294
294, 215
215, 241
241, 232
232, 221
221, 247
247, 251
251, 260
260, 268
268, 252
252, 276
276, 270
270, 227
227, 219
219, 214
214, 208
208, 207
207, 300
300, 310
310, 320
320, 326
326, 350
350, 369
369, 377
377, 386
386, 365
365, 401
401, 405
405, 414
414, 423
423, 431
431, 424
424, 419
419, 410
410, 425
425, 413
413, 406
406, 402
402, 395
395, 396
396, 385
385, 378
378, 432
432, 373
373, 407
407, 403
403, 394
394, 412
412, 379
379, 374
374, 376
376, 368
368, 384
384, 366
366, 359
359, 363
363, 352
352, 433
433, 358
358, 351
351, 357
357, 333
333, 318
318, 312
312, 305
305, 304
304, 311
311, 327
327, 339
339, 328
328, 313
313, 314
314, 315
315, 329
329, 338
338, 344
344, 353
353, 332
332, 362
362, 367
367, 382
382, 316
316, 392
392, 434
434, 429
429, 417
417, 411
411, 428
428, 226
226, 224
224, 242
242, 250
250, 228
228, 243
243, 255
255, 259
259, 284
284, 223
223, 387
387, 422
422, 436
436, 53
53, 60
60, 64
64, 79
79, 78
78, 6
6, 5
5, 517
517, 518
518, 516
516, 513
513, 512
512, 528
528, 479
479, 478
478, 477
477, 476
476, 475
475, 519
519, 520
520, 521
521, 527
527, 526
526, 525
525, 522
522, 524
524, 530
530, 533
533, 523
523, 529
529, 531
531, 532
532, 535
535, 534
534, 536
536, 537
537, 538
538, 539
539, 540
540, 541
541, 474
474, 267
267, 282
282, 256
256, 244
244, 233
233, 274
274, 283
283, 286
286, 272
272, 277
277, 291
291, 249
249, 511
511, 4
4, 371
371, 390
390, 416
416, 409
409, 420
420, 437
437, 438
438, 399
399, 176
176, 192
192, 188
188, 175
175, 337
337, 356
356, 435
435, 430
430, 582
582, 578
578, 574
574, 211
211, 204
204, 559
559, 556
556, 551
551, 550
550, 549
549, 543
543, 554
554, 555
555, 557
557, 553
553, 558
558, 548
548, 547
547, 546
546, 545
545, 544
544, 563
563, 565
565, 560
560, 564
564, 561
561, 562
562, 566
566, 552
552, 628
628, 568
568, 569
569, 571
571, 572
572, 626
626, 655
655, 654
654, 653
653, 627
627, 542
542, 573
573, 577
577, 576
576, 583
583, 584
584, 585
585, 588
588, 587
587, 590
590, 599
599, 603
603, 604
604, 609
609, 593
593, 579
579, 575
575, 656
656, 567
567, 570
570, 652
652, 648
648, 647
647, 649
649, 650
650, 651
651, 629
629, 630
630, 631
631, 632
632, 633
633, 634
634, 635
635, 638
638, 639
639, 637
637, 636
636, 640
640, 641
641, 642
642, 643
643, 644
644, 645
645, 646
646, 611
611, 612
612, 619
619, 624
624, 625
625, 427
427, 408
408, 622
622, 620
620, 618
618, 617
617, 616
616, 615
615, 613
613, 426
426, 614
614, 621
621, 623
EOF